2023/05/23
Julia is now 1.9.0
previous version was 1.7.2
2023/11/29
gurobi is now 11.0.0
previous version was 10.0.2
solving instance uflp nldep holmberg 19 sinabc1
presolving:
(round 1, fast)       20 del vars, 1000 del conss, 0 add conss, 20 chg bounds, 0 chg sides, 0 chg coeffs, 0 upgd conss, 0 impls, 0 clqs
   (0.0s) symmetry computation started: requiring (bin +, int +, cont +), (fixed: bin -, int -, cont -)
   (0.0s) no symmetry present
presolving (2 rounds: 2 fast, 1 medium, 1 exhaustive):
 20 deleted vars, 1000 deleted constraints, 0 added constraints, 20 tightened bounds, 0 added holes, 0 changed sides, 0 changed coefficients
 0 implications, 0 cliques
presolved problem has 1040 variables (0 bin, 0 int, 0 impl, 1040 cont) and 90 constraints
     70 constraints of type <linear>
     20 constraints of type <nonlinear>
Presolving Time: 0.01

 time | node  | left  |LP iter|LP it/n|mem/heur|mdpt |vars |cons |rows |cuts |sepa|confs|strbr|  dualbound   | primalbound  |  gap   | compl. 
  0.0s|     1 |     0 |   105 |     - |    10M |   0 |1080 |  90 | 190 |   0 |  0 |   0 |   0 | 3.207790e+03 |      --      |    Inf | unknown
L 0.1s|     1 |     0 |   105 |     - |undercov|   0 |1080 |  90 | 190 |   0 |  0 |   0 |   0 | 3.207790e+03 | 3.263443e+03 |   1.73%| unknown
L 0.2s|     1 |     0 |   105 |     - |undercov|   0 |1080 |  90 | 190 |   0 |  0 |   0 |   0 | 3.207790e+03 | 3.263440e+03 |   1.73%| unknown
  0.4s|     1 |     0 |   123 |     - |    10M |   0 |1080 |  90 | 208 |  18 |  1 |   0 |   0 | 3.214014e+03 | 3.263440e+03 |   1.54%| unknown
  0.4s|     1 |     0 |   123 |     - |    10M |   0 |1080 |  90 | 208 |  18 |  1 |   0 |   0 | 3.214014e+03 | 3.263440e+03 |   1.54%| unknown
  0.4s|     1 |     0 |   523 |     - |    11M |   0 |1080 |  90 | 208 |  18 |  3 |   0 |   0 | 3.227853e+03 | 3.263440e+03 |   1.10%| unknown
  0.4s|     1 |     0 |   552 |     - |    11M |   0 |1080 |  90 | 228 |  38 |  4 |   0 |   0 | 3.260402e+03 | 3.263440e+03 |   0.09%| unknown
  0.4s|     1 |     0 |   572 |     - |    11M |   0 |1080 |  90 | 248 |  58 |  5 |   0 |   0 | 3.263290e+03 | 3.263440e+03 |   0.00%| unknown
  0.5s|     1 |     0 |   572 |     - |    11M |   0 |1080 |  90 | 248 |  58 |  7 |   0 |   0 | 3.263290e+03 | 3.263440e+03 |   0.00%| unknown
  0.5s|     1 |     0 |   572 |     - |    11M |   0 |1080 |  90 | 248 |  58 |  9 |   0 |   0 | 3.263290e+03 | 3.263440e+03 |   0.00%| unknown
  0.5s|     1 |     0 |   572 |     - |    11M |   0 |1080 |  90 | 248 |  58 | 11 |   0 |   0 | 3.263290e+03 | 3.263440e+03 |   0.00%| unknown
  0.5s|     1 |     2 |   572 |     - |    11M |   0 |1080 |  90 | 248 |  58 | 13 |   0 |   0 | 3.263290e+03 | 3.263440e+03 |   0.00%| unknown

SCIP Status        : problem is solved [optimal solution found]
Solving Time (sec) : 0.55
Solving Nodes      : 3
Primal Bound       : +3.26343987226697e+03 (3 solutions)
Dual Bound         : +3.26343987226697e+03
Gap                : 0.00 %
reading holmberg data file ../../../../../instances/uflp/holmberg/p19
primal_bound = 3263.439872266966, dual_bound = 3263.439872266966, gap = 0.0, time = 3.24
